Traveling Salesman Problem/TSP_generados/Aleatorio1621103333_10.tsp
NAME: Aleatorio1621103333_10.tsp
COMMENT: Randomly generated scenario
TYPE: TSP
DIMENSION: 10
EDGE_WEIGHT_TYPE: ATT
NODE_COORD_SECTION
1 42.17 37.48
2 18.87 33.8
3 24.11 29.96
4 19.23 12.88
5 11.53 38.3
6 6.93 42.02
7 31.07 25.75
8 33.2 49.22
9 19.93 20.09
10 23.97 23.38
