Traveling Salesman Problem/TSP_generados/Aleatorio1621103333_10.opt.tour
NAME: Aleatorio1621103333_10.opt.tour
COMMENT: Optimal solution for Aleatorio1621103333_10 (115.70808638903276)
TYPE: TOUR
DIMENSION: 10
TOUR_SECTION
1 7 4 9 10 3 2 5 6 8
-1
EOF
